HUN,8,6,110
0,22,3,21,2,21,5,24,1,23,4,26
5,25,2,30,0,24,1,28,4,22,3,24
5,24,1,28,4,27,0,21,2,21,3,25
3,22,4,29,1,23,0,27,2,27,5,22
4,26,1,26,5,27,2,29,3,22,0,22
1,26,2,24,5,26,3,29,0,28,4,26
0,27,2,26,5,24,3,25,1,29,4,29
3,26,2,26,1,22,5,28,4,21,0,27
